webassembly/ejemplos_dzn/8/folder8_json_77.dzn
TERM = { '.', 's(2)', 'in_1', 'local_0', 'local_1', 'in_2', 'in_4', 'in_3', 's(1)', 's(0)', 's(3)', 'in_0'};
null = '.';
s = 8;
n = 10;
ndeps = 5;
max_registers_sz = 4;
NR = 1;
registers = [|'local_0', 'in_0'|];
dependencies = [|'i32.load8_u_2', 'i32.store16_6', |'i32.store16_6', 'call[function_index(0)]_7', |'i32.load8_u_3', 'i32.store16_6', |'i32.load16_u_4', 'i32.store16_6', |'i32.load16_u_5', 'i32.store16_6'|];
GET_ENUM = { GET1, GET2, GET3, GET4, GET5};
SET_ENUM = { SET1, SET2, SET3, SET4, SET5};
TEE_ENUM = { TEE1, TEE2, TEE3, TEE4, TEE5};
N = 7;
OP = { 'call[function_index(0)]_7', 'i32.load8_u_2', 'i32.load8_u_3', 'i32.load16_u_4', 'i32.load16_u_5', 'i32.store16_6', 'local.get_0' };
in_ops = [3, 1, 1, 1, 1, 2, 0 ];
out_ops = [0, 1, 1, 1, 1, 0, 1 ];
in1 = ['in_2', 'local_1', 's(0)', 's(1)', 's(2)', 's(3)', '.' ];
in2 = ['in_3', '.', '.', '.', '.', 'in_1', '.' ];
in3 = ['in_4', '.', '.', '.', '.', '.', '.' ];
out1 = ['.', 's(0)', 's(1)', 's(2)', 's(3)', '.', 'local_1' ];
out2 = ['.', '.', '.', '.', '.', '.', '.' ];
out3 = ['.', '.', '.', '.', '.', '.', '.' ];
comm = [false, false, false, false, false, false, false ];
gas = [1, 1, 1, 1, 1, 1, 1 ];
sz = [1, 1, 1, 1, 1, 1, 1 ];
stor = [true, false, false, false, false, true, false ];
lb = [ 1, 1, 1, 1, 1, 1, 1 ];
ub = [ 8, 8, 8, 8, 8, 8, 8 ];
startstack = [ 'in_0', 'in_1', 'in_2', 'in_3', 'in_4', null, null, null, null, null ];
endstack = [ null, null, null, null, null, null, null, null, null, null ];
